! Opt PBE0 RIJCOSX D3BJ def2-SVP def2/J 
%output 
xyzfile=True 
end 
%scf 
maxiter 250 
end
%output
Print[P_Hirshfeld] = 1
end
% maxcore
4000
%pal nprocs 8
end
*xyz 0 1
C    1.08556266  -0.78363687  -0.19489519 
C    1.24163807   0.53593015  -0.03705368 
C   -0.20849334   1.01903682  -0.19237905 
C   -0.96725054   0.02766228   0.72615129 
C   -0.43187390  -0.87025035  -0.41818844 
O   -0.66708827   0.23692906  -1.32047234 
H    1.80364034  -1.60259337  -0.17850750 
H    2.12806773   1.14078681   0.14962786 
H   -0.42833456   2.09342838  -0.25030111 
H   -2.05810086   0.16174108   0.68188234 
H   -0.60671528  -0.13747598   1.75208362 
H   -0.89115203  -1.82165801  -0.71814778 
*
