! Opt PBE0 RIJCOSX D3BJ def2-SVP def2/J 
%output 
xyzfile=True 
end 
%scf 
maxiter 250 
end
%output
Print[P_Hirshfeld] = 1
end
% maxcore
4000
%pal nprocs 8
end
*xyz 0 2
O   -2.57986311  -0.38897855   0.74954506 
O   -1.35374563   0.21555431   1.15412523 
C   -0.62233619   0.48639295  -0.02542794 
C    0.57952837   1.28684397   0.38142993 
C    1.74128930   0.59345853   0.06775171 
C    1.44901078  -0.61578611  -0.55154658 
C   -0.03321319  -0.77657588  -0.69411834 
H   -2.58669781  -1.16847652   1.32124203 
H   -1.28632736   1.04486620  -0.71242235 
H    0.51140829   2.25453270   0.87886682 
H    2.75128854   0.95424791   0.27499713 
H    2.18425223  -1.34250602  -0.90126864 
H   -0.33534715  -0.86418043  -1.75221100 
H   -0.41924706  -1.67929305  -0.19096306 
*
