! EnGrad PBE0 RIJCOSX D3BJ def2-SVP def2/J 
%output 
xyzfile=True 
end 
%scf 
maxiter 250 
end
%output
Print[P_Hirshfeld] = 1
end
% maxcore
4000
*xyz 0 2
O   -2.72703307   0.56297822   2.12041718 
O   -0.55728444  -0.40091521   0.92919571 
C   -0.72922097   0.14463903  -0.43164772 
C    0.15537355   0.86852622   0.51513120 
C    1.54602049   0.47894833   0.22285672 
C    1.51381311  -0.64827274  -0.62103926 
C    0.11571544  -0.67096944  -1.34569304 
H   -1.95656117   0.01204902   1.85804487 
H   -1.77549552   0.42385734  -0.60072044 
H   -0.19363374   1.70782800   1.12101714 
H    2.44091494   0.78632618   0.75932921 
H    2.16601417  -1.32819281  -0.71422518 
H    0.30969429  -0.25541507  -2.34818830 
H   -0.30788634  -1.68081336  -1.46393953 
*
