! EnGrad PBE0 RIJCOSX D3BJ def2-SVP def2/J 
%output 
xyzfile=True 
end 
%scf 
maxiter 250 
end
%output
Print[P_Hirshfeld] = 1
end
% maxcore
4000
*xyz 0 2
O   -2.50155561   0.07574955   1.55323967 
O   -0.61839826  -0.29181068   0.90369296 
C   -0.73407617   0.21523146  -0.45213224 
C    0.14704245   0.90496849   0.51846099 
C    1.52653478   0.43364437   0.27690753 
C    1.49364140  -0.64145358  -0.62227456 
C    0.10714674  -0.66149304  -1.32010761 
H   -2.07421663   0.14277716   2.44630877 
H   -1.73035467   0.57170922  -0.69765140 
H   -0.15507357   1.79227471   1.08095134 
H    2.41618215   0.71642308   0.82844147 
H    2.18912410  -1.30920418  -0.76656638 
H    0.27018454  -0.28065616  -2.34678808 
H   -0.33632043  -1.66787170  -1.40205301 
*
