! LooseOpt PBE0 RIJCOSX D3BJ def2-SVP def2/J 
%geom Constraints
{ B 1 5 3.387444315176024 C }
{ B 0 1 1.4266055560153312 C }
    end
end
%geom MaxIter 50 end
%output 
xyzfile=True 
end 
%scf 
maxiter 250 
end
%output
Print[P_Hirshfeld] = 1
end
% maxcore
4000
%pal nprocs 8
end
*xyz 0 2
O   -2.58135924  -0.38940613   0.74707096 
O   -1.35599755   0.21692513   1.15456884 
C   -0.62180302   0.48700608  -0.02399779 
C    0.58041863   1.28610268   0.38274866 
C    1.74186518   0.59366293   0.06719868 
C    1.44889011  -0.61504371  -0.55283037 
C   -0.03338686  -0.77653912  -0.69196366 
H   -2.58594131  -1.17020509   1.31692077 
H   -1.28414955   1.04646812  -0.71179936 
H    0.51178548   2.25427826   0.87901556 
H    2.75174454   0.95499832   0.27336628 
H    2.18294599  -1.34227180  -0.90358870 
H   -0.33739950  -0.86676909  -1.74925865 
H   -0.41761288  -1.67910658  -0.18745124 
*
