! LooseOpt PBE0 RIJCOSX D3BJ def2-SVP def2/J 
%geom Constraints
{ B 1 5 2.636626491755024 C }
{ B 0 1 1.7323770705479338 C }
    end
end
%geom MaxIter 50 end
%output 
xyzfile=True 
end 
%scf 
maxiter 250 
end
%output
Print[P_Hirshfeld] = 1
end
% maxcore
4000
%pal nprocs 8
end
*xyz 0 2
O   -2.39848629  -0.77513669   0.89315834 
O   -1.01363940   0.14895804   1.11433532 
C   -0.64662414   0.54474887  -0.17376262 
C    0.55317469   1.37528222   0.19241022 
C    1.66364853   0.53564666   0.17855591 
C    1.32193972  -0.69475663  -0.36428281 
C   -0.06777351  -0.66237117  -0.90740416 
H   -2.37355418  -1.13001018   1.79416588 
H   -1.47044718   1.07208604  -0.68277454 
H    0.49405400   2.39067877   0.58322706 
H    2.65627233   0.80201939   0.54709108 
H    2.00650465  -1.53800551  -0.47616541 
H   -0.05115826  -0.51477052  -2.00358160 
H   -0.67391093  -1.55426929  -0.69497269 
*
