! LooseOpt PBE0 RIJCOSX D3BJ def2-SVP def2/J 
%geom Constraints
{ B 1 5 2.288875967787941 C }
{ B 0 1 2.502715380555486 C }
    end
end
%geom MaxIter 50 end
%output 
xyzfile=True 
end 
%scf 
maxiter 250 
end
%output
Print[P_Hirshfeld] = 1
end
% maxcore
4000
%pal nprocs 8
end
*xyz 0 2
O   -2.31759076   0.53573283   1.74437431 
O   -0.50785903  -0.31909811   0.82454271 
C   -0.73625204   0.18816023  -0.46064072 
C    0.14221659   0.90443020   0.49828929 
C    1.52213943   0.45177737   0.25353940 
C    1.37506054  -0.61628099  -0.53230447 
C    0.11358286  -0.67483300  -1.33289845 
H   -2.22536682  -0.22554206   2.33972787 
H   -1.75647654   0.50900411  -0.68405368 
H   -0.18356255   1.78162901   1.05949052 
H    2.40838871   0.74674171   0.81367301 
H    2.19855512  -1.30329029  -0.75558640 
H    0.28042308  -0.29107330  -2.35376985 
H   -0.31325861  -1.68725774  -1.41438356 
*
