! LooseOpt PBE0 RIJCOSX D3BJ def2-SVP def2/J 
%geom Constraints
{ B 1 5 2.238712546129391 C }
{ B 0 1 2.8024081417945363 C }
    end
end
%geom MaxIter 50 end
%output 
xyzfile=True 
end 
%scf 
maxiter 250 
end
%output
Print[P_Hirshfeld] = 1
end
% maxcore
4000
%pal nprocs 8
end
*xyz 0 2
O   -2.47695658   0.65823382   1.81502012 
O   -0.43751635  -0.39225328   0.81464772 
C   -0.72360793   0.14622550  -0.44384081 
C    0.15512112   0.86582548   0.51111327 
C    1.54331849   0.46200581   0.22990183 
C    1.38880946  -0.61276109  -0.54728604 
C    0.12890310  -0.67263261  -1.35285749 
H   -2.29695669  -0.13979954   2.34139562 
H   -1.75992199   0.43561389  -0.63851748 
H   -0.18350482   1.71800247   1.10345704 
H    2.43402315   0.76766467   0.77647185 
H    2.21848983  -1.28773423  -0.78669846 
H    0.29056828  -0.25867030  -2.36249800 
H   -0.28076909  -1.68962062  -1.46030919 
*
