! LooseOpt PBE0 RIJCOSX D3BJ def2-SVP def2/J 
%geom Constraints
{ B 1 5 3.1874443151760237 C }
{ B 0 1 1.6266055560153312 C }
    end
end
%geom MaxIter 50 end
%output 
xyzfile=True 
end 
%scf 
maxiter 250 
end
%output
Print[P_Hirshfeld] = 1
end
% maxcore
4000
%pal nprocs 8
end
*xyz 0 2
O   -2.58147633  -0.38913938   0.74681068 
O   -1.35598400   0.21684048   1.15443841 
C   -0.62172292   0.48691014  -0.02396715 
C    0.58045043   1.28603721   0.38299150 
C    1.74192643   0.59376667   0.06710155 
C    1.44892851  -0.61490690  -0.55302787 
C   -0.03335736  -0.77665679  -0.69184529 
H   -2.58639934  -1.16996235   1.31665098 
H   -1.28390909   1.04649351  -0.71183855 
H    0.51169767   2.25409764   0.87950655 
H    2.75181635   0.95520230   0.27316928 
H    2.18296084  -1.34205239  -0.90408629 
H   -0.33773590  -0.86732522  -1.74900863 
H   -0.41719526  -1.67920492  -0.18689520 
*
