! LooseOpt PBE0 RIJCOSX D3BJ def2-SVP def2/J 
%geom Constraints
{ B 1 5 2.484367860973841 C }
{ B 0 1 1.7910147621859476 C }
    end
end
%geom MaxIter 50 end
%output 
xyzfile=True 
end 
%scf 
maxiter 250 
end
%output
Print[P_Hirshfeld] = 1
end
% maxcore
4000
%pal nprocs 8
end
*xyz 0 2
O   -2.27618691  -0.87760768   0.95343229 
O   -0.86951059   0.12748405   1.06380736 
C   -0.65441022   0.57249763  -0.23659251 
C    0.54120041   1.40417219   0.13698452 
C    1.61561069   0.51893478   0.21333716 
C    1.22859760  -0.71136806  -0.29489355 
C   -0.09092662  -0.62249127  -0.98514238 
H   -2.21366149  -1.13675879   1.88469269 
H   -1.52548913   1.09101531  -0.66653633 
H    0.48807406   2.42758248   0.50662438 
H    2.59272180   0.74133682   0.64561343 
H    1.86794488  -1.59697190  -0.31169462 
H    0.04212177  -0.44545400  -2.06855955 
H   -0.74608621  -1.49227156  -0.84107289 
*
