! LooseOpt PBE0 RIJCOSX D3BJ def2-SVP def2/J 
%geom Constraints
{ B 1 5 2.8901723543034668 C }
{ B 0 1 1.6794854123263885 C }
    end
end
%geom MaxIter 50 end
%output 
xyzfile=True 
end 
%scf 
maxiter 250 
end
%output
Print[P_Hirshfeld] = 1
end
% maxcore
4000
%pal nprocs 8
end
*xyz 0 2
O   -2.52388884  -0.68411664   0.77291146 
O   -1.17455427   0.13873338   1.15769672 
C   -0.62413549   0.48839581  -0.08441377 
C    0.56934732   1.31605017   0.30516703 
C    1.72829758   0.57242345   0.11128546 
C    1.43712410  -0.64249984  -0.49415431 
C   -0.02191553  -0.72733977  -0.80949384 
H   -2.70015850  -0.97002533   1.68116584 
H   -1.37780731   1.03301617  -0.68094028 
H    0.49067401   2.30061972   0.76608801 
H    2.73098900   0.90389064   0.38971051 
H    2.16977864  -1.40783703  -0.75648139 
H   -0.19052286  -0.67388781  -1.90068496 
H   -0.51322783  -1.64732292  -0.45785650 
*
