! EnGrad PBE0 RIJCOSX D3BJ def2-SVP def2/J 
%output 
xyzfile=True 
end 
%scf 
maxiter 250 
end
%output
Print[P_Hirshfeld] = 1
end
% maxcore
4000
*xyz 0 2
O   -2.23081000  -0.41282000   1.73449000 
O   -0.53916000  -0.28058000   0.87357000 
C   -0.73643000   0.24150000  -0.40559000 
C    0.17844000   0.91333000   0.54720000 
C    1.53655000   0.41035000   0.28250000 
C    1.35836000  -0.62174000  -0.54486000 
C    0.07074000  -0.63709000  -1.30496000 
H   -2.23102000   0.52064000   2.00119000 
H   -1.74834000   0.59400000  -0.62573000 
H   -0.08238000   1.81450000   1.10894000 
H    2.43695000   0.66389000   0.84044000 
H    2.16011000  -1.32176000  -0.80091000 
H    0.21410000  -0.24801000  -2.32732000 
H   -0.38711000  -1.63612000  -1.37897000 
*
