! EnGrad PBE0 RIJCOSX D3BJ def2-SVP def2/J 
%output 
xyzfile=True 
end 
%scf 
maxiter 250 
end
%output
Print[P_Hirshfeld] = 1
end
% maxcore
4000
*xyz 0 2
O   -2.34417650  -0.42583708   1.77962345 
O   -0.54966510  -0.24676955   0.90669063 
C   -0.73331206   0.23940719  -0.40238585 
C    0.18207742   0.91641842   0.54323598 
C    1.54254375   0.39881313   0.27008963 
C    1.43798871  -0.60572619  -0.61311873 
C    0.07851558  -0.63953600  -1.30425887 
H   -2.23126975   0.51017355   2.00916455 
H   -1.74640822   0.59781503  -0.62683027 
H   -0.07788207   1.82046919   1.10457663 
H    2.43776038   0.66497119   0.84052910 
H    2.18126019  -1.34506665  -0.80433042 
H    0.21174369  -0.24927969  -2.32672327 
H   -0.38913923  -1.63563428  -1.37601747 
*
