! EnGrad PBE0 RIJCOSX D3BJ def2-SVP def2/J 
%output 
xyzfile=True 
end 
%scf 
maxiter 250 
end
%output
Print[P_Hirshfeld] = 1
end
% maxcore
4000
*xyz 0 2
O   -2.48974166  -0.06949062   1.57901344 
O   -0.60144371  -0.28400218   0.89455256 
C   -0.73340276   0.21567667  -0.44030539 
C    0.14369100   0.90134138   0.52078717 
C    1.52572384   0.41703943   0.26941235 
C    1.45513853  -0.60036402  -0.60430530 
C    0.11247697  -0.66431856  -1.31798963 
H   -2.08452325   0.26993555   2.39115406 
H   -1.73673696   0.57529006  -0.68827374 
H   -0.14944758   1.79739401   1.07966944 
H    2.41464351   0.71825383   0.83165064 
H    2.21399446  -1.32987266  -0.77219528 
H    0.26710097  -0.28007440  -2.34350210 
H   -0.33748538  -1.66658233  -1.39887941 
*
