! Freq PBE0 RIJCOSX D3BJ def2-SVP def2/J 
%output 
xyzfile=True 
end 
%scf 
maxiter 250 
end
%output
Print[P_Hirshfeld] = 1
end
% maxcore
4000
%pal nprocs 8
end
*xyz 0 2
O   -2.19866823  -0.95153572   0.99381022 
O   -0.76850039   0.12632830   1.01753764 
C   -0.65793155   0.58120606  -0.28552993 
C    0.52241403   1.40626018   0.13336433 
C    1.59340067   0.51019733   0.22482010 
C    1.18134787  -0.71032522  -0.27481930 
C   -0.09686608  -0.60480012  -1.03842669 
H   -2.15557097  -1.07063890   1.95402350 
H   -1.55223837   1.09291778  -0.67103755 
H    0.46002319   2.42269307   0.52040436 
H    2.55457048   0.70749737   0.70132163 
H    1.79498382  -1.61428201  -0.24578881 
H    0.09171027  -0.43037696  -2.11348348 
H   -0.76867473  -1.46504117  -0.91619603 
*
