! EnGrad PBE0 RIJCOSX D3BJ def2-SVP def2/J 
%output 
xyzfile=True 
end 
%scf 
maxiter 250 
end
%output
Print[P_Hirshfeld] = 1
end
% maxcore
4000
*xyz 0 2
O   -2.15463653  -0.82304690   0.97285583 
O   -0.99917391   0.07637810   1.07642396 
C   -0.65809122   0.57291991  -0.24132731 
C    0.53734469   1.40237276   0.13469040 
C    1.60966192   0.51504740   0.21497552 
C    1.26000025  -0.71978296  -0.32499108 
C   -0.08787176  -0.61954824  -0.99670325 
H   -2.19815039  -1.11815454   1.89905657 
H   -1.53172827   1.09144180  -0.66912751 
H    0.48117804   2.42619708   0.51019339 
H    2.58330401   0.73336377   0.65989487 
H    1.85616821  -1.61018232  -0.29520128 
H    0.05363667  -0.44108879  -2.07998286 
H   -0.75138487  -1.48591934  -0.86085607 
*
