! EnGrad PBE0 RIJCOSX D3BJ def2-SVP def2/J 
%output 
xyzfile=True 
end 
%scf 
maxiter 250 
end
%output
Print[P_Hirshfeld] = 1
end
% maxcore
4000
*xyz 0 2
O   -2.40238929  -0.61206373   0.80861978 
O   -1.29788317   0.06755495   1.12659093 
C   -0.62513178   0.48867782  -0.08489676 
C    0.56865625   1.31694846   0.30328695 
C    1.72782564   0.57173614   0.11225384 
C    1.44146643  -0.64488074  -0.49622070 
C   -0.02240530  -0.72619272  -0.81086031 
H   -2.69573618  -0.97222287   1.68273084 
H   -1.37877607   1.03360751  -0.68113817 
H    0.49084363   2.30177106   0.76380891 
H    2.73001329   0.90256476   0.39167421 
H    2.16765843  -1.40956752  -0.75269741 
H   -0.18877081  -0.67183547  -1.90200926 
H   -0.51529431  -1.64626142  -0.46112026 
*
