! SP PBE0 RIJCOSX D3BJ def2-TZVP def2/J 
%output 
xyzfile=True 
end 
%scf 
maxiter 250 
end
%output
Print[P_Hirshfeld] = 1
end
% maxcore
4000
%pal nprocs 8
end
*xyz 0 2
O    0.48818649   0.00000000   0.00000000 
H   -0.48818649   0.00000000   0.00000000 
*
