! SP PBE0 RIJCOSX D3BJ def2-TZVP def2/J 
%geom
modify_internal
{ B 0 1 A } end
end
%geom
modify_internal
{ B 1 4 A } end
end
%output 
xyzfile=True 
end 
%scf 
maxiter 250 
end
%output
Print[P_Hirshfeld] = 1
end
% maxcore
4000
%pal nprocs 8
end
*xyz 0 2
O    2.55780995  -0.14672122   0.75935371 
O    0.89919442  -0.57981940   0.80912472 
C    0.56415259  -0.49835789  -0.57710511 
C   -0.75835099  -1.23541173  -0.42779413 
C   -1.08711245  -0.33396465   0.72606242 
C   -0.94655689   1.08792805   0.27271600 
C    0.16370078   0.95871072  -0.80055555 
H    2.67160592  -0.24396511   1.71489961 
H    1.36161265  -0.90500948  -1.21401523 
H   -0.62002221  -2.28614531  -0.14281427 
H   -1.45067759  -1.15999367  -1.28824082 
H   -1.60897595  -0.63585303   1.63780142 
H   -0.67071572   1.75385852   1.10350251 
H   -1.89698256   1.46910467  -0.14484234 
H    1.02142151   1.61500724  -0.60444923 
H   -0.19983343   1.14082232  -1.82365369 
*
