! LooseOpt PBE0 RIJCOSX D3BJ def2-SVP def2/J 
%geom Constraints
{ B 0 1 1.7149509227165678 C }
{ B 1 4 2.0031871742195047 C }
    end
end
%geom MaxIter 10 end
%output 
xyzfile=True 
end 
%scf 
maxiter 250 
end
%output
Print[P_Hirshfeld] = 1
end
% maxcore
4000
%pal nprocs 8
end
*xyz 0 2
O    2.32523019  -1.25201810   0.92350366 
O    0.62953326  -1.14529272   0.72199970 
C    0.40671397  -0.79638015  -0.62488672 
C   -1.06087634  -1.23462085  -0.60642503 
C   -1.24519711  -0.44534655   0.65378162 
C   -0.78889364   0.95198825   0.39998445 
C    0.30531957   0.73407299  -0.66974206 
H    2.32258044  -1.64135728   1.79996636 
H    1.12106563  -1.26148474  -1.30245979 
H   -1.17881699  -2.30620258  -0.47338929 
H   -1.65571960  -0.88278450  -1.45369272 
H   -1.82287798  -0.75145850   1.50617517 
H   -0.40026755   1.41897577   1.30422464 
H   -1.60806437   1.57492028   0.02610331 
H    1.25196638   1.18953073  -0.39021860 
H    0.01064413   1.08450793  -1.65738469 
*
