! LooseOpt PBE0 RIJCOSX D3BJ def2-SVP def2/J 
%geom MaxIter 10 end
%output 
xyzfile=True 
end 
%scf 
maxiter 250 
end
%output
Print[P_Hirshfeld] = 1
end
% maxcore
4000
%pal nprocs 8
end
*xyz 0 1
C    1.14578066   0.49693531   0.14417173 
C    0.39765664  -0.45573436   1.10197236 
C   -0.98938346  -0.33523125   0.44823683 
C   -0.67483721  -0.51677062  -1.04027931 
C   -0.05459969   0.85358452  -0.74861105 
O   -1.09871589   1.07929883   0.21422596 
H    1.53788576   1.37507861   0.65182205 
H    1.94434483   0.01353660  -0.41433595 
H    0.77407749  -1.47607833   1.08238491 
H    0.38667713  -0.09272352   2.12718194 
H   -1.84235291  -0.79029296   0.94256094 
H   -1.56014154  -0.44909180  -1.66512065 
H   -0.02820192  -1.33454070  -1.34762157 
H    0.06181010   1.63202966  -1.49668819 
*
