! EnGrad PBE0 RIJCOSX D3BJ def2-SVP def2/J 
%output 
xyzfile=True 
end 
%scf 
maxiter 250 
end
%output
Print[P_Hirshfeld] = 1
end
% maxcore
4000
*xyz 0 2
O   -2.58696031   0.68459613   1.89533995 
O   -0.42765446  -0.40411629   0.81848420 
C   -0.72822825   0.14143748  -0.43408340 
C    0.15265636   0.86188123   0.51854040 
C    1.54113778   0.46402744   0.23214614 
C    1.37999044  -0.61611008  -0.53598465 
C    0.12295577  -0.67421660  -1.34646934 
H   -2.13834494  -0.12945873   2.17005372 
H   -1.76673833   0.42933783  -0.62139265 
H   -0.19012180   1.71106638   1.11339208 
H    2.43275425   0.77121547   0.77605711 
H    2.20825738  -1.29298964  -0.77485021 
H    0.28803984  -0.25627660  -2.35374645 
H   -0.28774992  -1.69027636  -1.45748925 
*
