! LooseOpt PBE0 RIJCOSX D3BJ def2-SVP def2/J 
%geom MaxIter 10 end
%output 
xyzfile=True 
end 
%scf 
maxiter 250 
end
%output
Print[P_Hirshfeld] = 1
end
% maxcore
4000
%pal nprocs 8
end
*xyz 0 1
C    1.07643096  -0.77767985  -0.18379474 
C    1.23104714   0.52990682  -0.02712084 
C   -0.20963572   1.02332834  -0.19527156 
C   -0.95326928   0.02722709   0.71623867 
C   -0.43408421  -0.87342759  -0.42186965 
O   -0.64296490   0.23412138  -1.32337413 
H    1.77127964  -1.59142719  -0.17410277 
H    2.09384076   1.13669926   0.15296526 
H   -0.42803189   2.08326756  -0.24973073 
H   -2.03248320   0.15730803   0.69544505 
H   -0.58360481  -0.13703887   1.72540583 
H   -0.88862448  -1.81238498  -0.71499038 
*
