! EnGrad PBE0 RIJCOSX D3BJ def2-SVP def2/J 
%output 
xyzfile=True 
end 
%scf 
maxiter 250 
end
%output
Print[P_Hirshfeld] = 1
end
% maxcore
4000
*xyz 0 2
O   -2.45916557  -0.20832121   1.62162908 
O   -0.58734450  -0.28118484   0.90187847 
C   -0.74066372   0.22488833  -0.43765529 
C    0.14930316   0.90937972   0.52473726 
C    1.52400396   0.42744052   0.28358156 
C    1.48314234  -0.63862024  -0.61882436 
C    0.09698729  -0.66081665  -1.31426313 
H   -2.10126490   0.38109838   2.29743637 
H   -1.74300173   0.57681061  -0.66907728 
H   -0.13490557   1.80345001   1.08267717 
H    2.41640057   0.70990021   0.83219298 
H    2.18352345  -1.30941440  -0.77041067 
H    0.25920835  -0.27420043  -2.33928600 
H   -0.34603618  -1.66037497  -1.39406641 
*
