! EnGrad PBE0 RIJCOSX D3BJ def2-SVP def2/J 
%output 
xyzfile=True 
end 
%scf 
maxiter 250 
end
%output
Print[P_Hirshfeld] = 1
end
% maxcore
4000
*xyz 0 2
O   -2.28369840  -0.71057841   0.91675777 
O   -1.13668915   0.08751468   1.10932766 
C   -0.65126833   0.54369079  -0.17178063 
C    0.55119628   1.37475402   0.18917255 
C    1.66115363   0.53361464   0.17978864 
C    1.33684182  -0.69907344  -0.37618419 
C   -0.06634020  -0.66034579  -0.91131983 
H   -2.36296954  -1.12740895   1.79373104 
H   -1.47296150   1.07333363  -0.68313778 
H    0.49389958   2.39274506   0.57891691 
H    2.65282247   0.79882973   0.55272456 
H    2.00216961  -1.54553075  -0.46715634 
H   -0.04640740  -0.51073393  -2.00736813 
H   -0.67788283  -1.55108026  -0.70383014 
*
