! EnGrad PBE0 RIJCOSX D3BJ def2-SVP def2/J 
%output 
xyzfile=True 
end 
%scf 
maxiter 250 
end
%output
Print[P_Hirshfeld] = 1
end
% maxcore
4000
*xyz 0 2
O   -2.48032075   0.65992996   1.81717283 
O   -0.58708859  -0.37456697   0.92725715 
C   -0.72721697   0.14530911  -0.44519446 
C    0.15598360   0.86777349   0.51428272 
C    1.54208911   0.45973360   0.22822719 
C    1.53569788  -0.62947382  -0.65595272 
C    0.13039076  -0.67329954  -1.35145569 
H   -2.28680694  -0.14125734   2.33245571 
H   -1.75980463   0.43605834  -0.63836237 
H   -0.18376987   1.71812591   1.10324043 
H    2.43401069   0.76793639   0.77660022 
H    2.21787184  -1.28797668  -0.78601233 
H    0.29052783  -0.25832170  -2.36204579 
H   -0.28127426  -1.68960450  -1.46002187 
*
