! EnGrad PBE0 RIJCOSX D3BJ def2-SVP def2/J 
%output 
xyzfile=True 
end 
%scf 
maxiter 250 
end
%output
Print[P_Hirshfeld] = 1
end
% maxcore
4000
*xyz 0 2
O   -2.48104876   0.66042998   1.81751962 
O   -0.58343684  -0.36537017   0.91708656 
C   -0.72444828   0.14291352  -0.43316572 
C    0.14991981   0.85890157   0.51464938 
C    1.54591650   0.44306608   0.21860646 
C    1.49141265  -0.58310407  -0.64053960 
C    0.13979434  -0.67715326  -1.34954330 
H   -2.28635453  -0.14110631   2.33183741 
H   -1.75958339   0.43726508  -0.64017930 
H   -0.18283408   1.71955138   1.10247746 
H    2.43323821   0.76858171   0.77758133 
H    2.25034420  -1.31600437  -0.79374337 
H    0.28815553  -0.25785582  -2.36214456 
H   -0.28075412  -1.68976192  -1.46027757 
*
