! EnGrad PBE0 RIJCOSX D3BJ def2-SVP def2/J 
%output 
xyzfile=True 
end 
%scf 
maxiter 250 
end
%output
Print[P_Hirshfeld] = 1
end
% maxcore
4000
*xyz 0 2
O   -2.43428702  -0.30541705   1.67498344 
O   -0.57704929  -0.26585671   0.90375975 
C   -0.73552959   0.22370611  -0.42240049 
C    0.15868840   0.90805025   0.53014204 
C    1.53227542   0.41104911   0.26925024 
C    1.44802946  -0.60083614  -0.60883276 
C    0.09720996  -0.65440913  -1.31093609 
H   -2.13607108   0.45018703   2.21255656 
H   -1.74528136   0.57761937  -0.65788992 
H   -0.11743484   1.81072236   1.08717365 
H    2.42369657   0.69939244   0.83407087 
H    2.20145193  -1.33372475  -0.78640899 
H    0.24131016  -0.26538928  -2.33537852 
H   -0.35692771  -1.65474690  -1.38992868 
*
