! Opt PBE0 RIJCOSX D3BJ def2-SVP def2/J 
%output 
xyzfile=True 
end 
%scf 
maxiter 250 
end
%output
Print[P_Hirshfeld] = 1
end
% maxcore
4000
%pal nprocs 8
end
*xyz 0 2
O    2.15567183  -1.15761170   1.08519664 
O    1.53975362   0.05206892   0.68122860 
C    0.71202630  -0.22556872  -0.43247591 
C   -0.43601418  -1.17750351  -0.07420453 
C   -1.49933408  -0.27431649   0.45903235 
C   -1.16564384   1.16159395   0.22526976 
C    0.01753009   1.09463698  -0.75615844 
H    3.08309987  -0.97492722   0.87513327 
H    1.33400300  -0.61118966  -1.26238488 
H   -0.10601458  -1.95654251   0.63149588 
H   -0.76573189  -1.70269637  -0.99587007 
H   -2.37253206  -0.61862276   1.02058054 
H   -0.84386075   1.64798210   1.16923450 
H   -2.00985651   1.75725757  -0.16408762 
H    0.70725790   1.94724146  -0.66821679 
H   -0.35005475   1.03839797  -1.79377331 
*
