! SP PBE0 RIJCOSX D3BJ def2-TZVP def2/J 
%output 
xyzfile=True 
end 
%scf 
maxiter 250 
end
%output
Print[P_Hirshfeld] = 1
end
% maxcore
4000
%pal nprocs 8
end
*xyz 0 1
C    0.25336813   1.49649374  -0.31356462 
C   -1.02095710   1.16322929  -0.07894671 
C   -1.46023557  -0.23098945   0.25954313 
C   -0.28404432  -1.12758519   0.63506840 
C    0.87931223  -0.93420764  -0.33077565 
C    1.38068679   0.50639535  -0.30026838 
H    0.50226921   2.54116639  -0.53017312 
H   -1.79464420   1.93718962  -0.13048354 
H   -2.19672268  -0.19908943   1.08066963 
H   -2.00728167  -0.65972579  -0.60195913 
H    0.05143156  -0.87582828   1.65672377 
H   -0.60020976  -2.18238963   0.66109749 
H    1.70080997  -1.63036151  -0.09884644 
H    0.54093469  -1.17784057  -1.35344250 
H    2.00267295   0.67577107   0.59963833 
H    2.05270977   0.69807205  -1.15428068 
*
