! SP PBE0 RIJCOSX D3BJ def2-TZVP def2/J 
%output 
xyzfile=True 
end 
%scf 
maxiter 250 
end
%output
Print[P_Hirshfeld] = 1
end
% maxcore
4000
%pal nprocs 8
end
*xyz 0 1
C   -1.84077802   0.11931158  -0.13271396 
C   -0.55938490   0.46209867  -0.32364830 
C    0.55937483  -0.46202751  -0.22289707 
C    1.84078239  -0.11929267  -0.41382842 
H   -2.64923670   0.84885670  -0.21946433 
H   -2.12178667  -0.90871181   0.11736042 
H   -0.31134485   1.50101446  -0.57330525 
H    0.31132025  -1.50094024   0.02676029 
H    2.12188160   0.90870380  -0.66390601 
H    2.64917205  -0.84891300  -0.32705738 
*
