! EnGrad PBE0 RIJCOSX D3BJ def2-SVP def2/J 
%output 
xyzfile=True 
end 
%scf 
maxiter 250 
end
%output
Print[P_Hirshfeld] = 1
end
% maxcore
4000
*xyz 0 2
O   -2.49948223  -0.45379054   0.75884508 
O   -1.35417537   0.15253960   1.13882725 
C   -0.62114741   0.48971896  -0.04662022 
C    0.57704108   1.29957841   0.35185874 
C    1.73908365   0.58678689   0.08463086 
C    1.44977293  -0.62670291  -0.53159860 
C   -0.02962330  -0.75897033  -0.73746077 
H   -2.63086357  -1.10997054   1.47633084 
H   -1.32023413   1.04282562  -0.70113235 
H    0.50354580   2.27247865   0.83622378 
H    2.74491955   0.93563322   0.31802464 
H    2.17942085  -1.36791753  -0.84772215 
H   -0.28252183  -0.79313888  -1.81081043 
H   -0.45596825  -1.66911664  -0.29000478 
*
