! EnGrad PBE0 RIJCOSX D3BJ def2-SVP def2/J 
%output 
xyzfile=True 
end 
%scf 
maxiter 250 
end
%output
Print[P_Hirshfeld] = 1
end
% maxcore
4000
*xyz 0 2
O   -2.22680311  -0.87593233   1.20423313 
O   -0.65726710  -0.02131879   0.95936375 
C   -0.67195248   0.47875997  -0.33153760 
C    0.42860347   1.30423308   0.24163011 
C    1.59009591   0.48734031   0.22853012 
C    1.25493125  -0.69028531  -0.38267354 
C   -0.03450431  -0.62624739  -1.13279758 
H   -2.30840540  -0.51313895   2.09884151 
H   -1.60501191   0.94987272  -0.66548818 
H    0.29153370   2.27040570   0.72820909 
H    2.52422592   0.69605949   0.75048649 
H    1.92919235  -1.54842571  -0.44795677 
H    0.14023748  -0.38108854  -2.19541188 
H   -0.65488222  -1.53013779  -1.05544510 
*
